
Gurobi 11.0.3 (linux64) logging started Thu Nov 21 16:46:18 2024

Set parameter LogFile to value "/home/yihong/Coding/OR_SUC/SUC_results_bigM100000_thread4/case24_ieee_rts_theta0.5_epsilon0.025_gurobi_seed20000_num_gen100_N_WDR100_load_scaling_factor1_proposed_T12quadra_cost.txt"
Set parameter TimeLimit to value 3600
Gurobi Optimizer version 11.0.3 build v11.0.3rc0 (linux64 - "Ubuntu 20.04.6 LTS")

CPU model: AMD EPYC 7532 32-Core Processor, instruction set [SSE2|AVX|AVX2]
Thread count: 64 physical cores, 128 logical processors, using up to 4 threads

Optimize a model with 25722 rows, 14981 columns and 353498 nonzeros
Model fingerprint: 0x2472b8d3
Model has 1200 quadratic constraints
Variable types: 13781 continuous, 1200 integer (1200 binary)
Coefficient statistics:
  Matrix range     [3e-04, 3e+03]
  QMatrix range    [2e-03, 8e-03]
  QLMatrix range   [2e-02, 6e+01]
  Objective range  [1e+00, 1e+00]
  Bounds range     [1e+00, 1e+00]
  RHS range        [1e+00, 9e+03]
Presolve removed 20945 rows and 6598 columns
Presolve time: 0.11s
Presolved: 4777 rows, 8383 columns, 30131 nonzeros
Presolved model has 1200 quadratic constraint(s)
Variable types: 7183 continuous, 1200 integer (1200 binary)

Root relaxation: objective 3.874441e+04, 4506 iterations, 0.07 seconds (0.09 work units)

    Nodes    |    Current Node    |     Objective Bounds      |     Work
 Expl Unexpl |  Obj  Depth IntInf | Incumbent    BestBd   Gap | It/Node Time

     0     0 38744.4108    0    -          - 38744.4108      -     -    0s
     0     0 168430.252    0  468          - 168430.252      -     -    0s
     0     0 296861.985    0  384          - 296861.985      -     -    0s
     0     0 296874.988    0  220          - 296874.988      -     -    0s
     0     0 297025.192    0   86          - 297025.192      -     -    0s
     0     0 297029.399    0   86          - 297029.399      -     -    0s
     0     0 297029.399    0   85          - 297029.399      -     -    0s
     0     0 297029.399    0   85          - 297029.399      -     -    0s
     0     2 297029.399    0   85          - 297029.399      -     -    1s
H  483   570                    297547.30738 297034.645  0.17%  10.0    2s
*  483   570              91    297547.30738 297034.645  0.17%  10.0    2s
H  890   694                    297547.30318 297037.748  0.17%   9.8    3s
   908   706 297360.301   64  121 297547.303 297037.748  0.17%   9.6    5s
H 1160   831                    297134.81047 297047.047  0.03%  22.9    7s
* 1160   831              54    297134.81047 297047.047  0.03%  22.9    7s

Cutting planes:
  Gomory: 11
  Implied bound: 50
  MIR: 30
  Flow cover: 47
  RLT: 14
  Relax-and-lift: 1

Explored 1162 nodes (38051 simplex iterations) in 7.80 seconds (6.90 work units)
Thread count was 4 (of 128 available processors)

Solution count 2: 297135 297547 

Optimal solution found (tolerance 1.00e-03)
Warning: max constraint violation (1.0091e-07) exceeds tolerance
Best objective 2.971348104682e+05, best bound 2.970470472787e+05, gap 0.0295%
